networks/zoo_95_865/zoo_95_865.txt
OKAY
Number of groups: 42
Flow 12: {17 16 0} {16 64 1} 
Flow 86: {4 1 0} {1 6 1} {6 12 2} {12 60 3} 
Flow 97: {7 46 0} {46 8 1} {8 5 2} {5 26 3} 
Flow 181: {33 32 0} {32 31 1} {31 34 2} {34 37 3} {37 85 4} 
Flow 187: {47 46 0} {46 94 1} 
Flow 227: {6 1 0} {1 4 1} {4 2 2} {2 7 3} {7 55 4} 
Flow 232: {13 14 0} {14 15 1} {15 63 2} 
Flow 279: {15 14 0} {14 62 1} 
Flow 280: {14 17 0} {17 65 1} 
Flow 295: {18 19 0} {19 11 1} {11 12 2} {12 6 3} {6 54 4} 
Flow 307: {17 18 0} {18 20 1} {20 68 2} 
Flow 325: {9 25 0} {25 39 1} {39 3 2} {3 51 3} 
Flow 380: {20 18 0} {18 17 1} {17 14 2} {14 13 3} {13 61 4} 
Flow 385: {20 11 2} {11 19 3} {19 67 4} 
Flow 386: {12 22 0} {22 21 1} {21 69 2} 
Flow 398: {21 23 0} {23 6 1} {6 5 2} {5 53 3} 
Flow 400: {22 12 0} {12 11 1} {11 9 2} {9 10 3} {10 33 4} 
Flow 423: {23 26 0} {26 74 1} 
Flow 426: {44 37 0} {37 36 1} {36 35 2} {35 83 3} 
Flow 434: {1 3 0} {3 38 1} {38 47 2} {47 95 3} 
Flow 439: {24 23 0} {23 71 1} 
Flow 449: {25 9 0} {9 57 1} 
Flow 457: {19 18 0} {18 66 1} 
Flow 476: {3 39 0} {39 10 1} {10 58 2} 
Flow 477: {26 5 0} {5 6 1} 
Flow 485: {26 23 0} {23 21 1} {21 22 2} {22 70 3} 
Flow 490: {5 8 0} {8 46 1} {46 45 2} {45 41 3} {41 89 4} 
Flow 513: {27 34 0} {34 31 1} {31 32 2} {32 33 3} {33 81 4} 
Flow 519: {27 37 0} {37 44 1} {44 42 2} {42 43 3} {43 91 4} 
Flow 535: {46 47 0} {47 38 1} {38 39 2} {39 25 3} {25 73 4} 
Flow 540: {30 43 0} {43 42 1} {42 90 2} 
Flow 614: {35 36 0} {36 37 1} {37 34 2} {34 82 3} 
Flow 619: {42 41 0} {41 45 1} {45 93 2} 
Flow 623: {45 46 0} {46 7 1} {7 2 2} {2 4 3} {4 52 4} 
Flow 638: {33 10 0} {10 9 1} {9 11 2} {11 20 3} 
Flow 656: {8 1 0} {1 49 1} 
Flow 677: {6 23 0} {23 24 1} {24 72 2} 
Flow 680: {37 27 0} {27 75 1} 
Flow 681: {13 28 0} {28 76 1} 
Flow 685: {10 39 0} {39 38 1} {38 86 2} 
Flow 696: {38 3 1} {3 1 2} {1 8 3} {8 56 4} 
Flow 823: {41 42 0} {42 44 1} {44 40 2} {40 88 3} 
Time taken running everything: 1 seconds
