networks/zoo_95_865/zoo_95_865.sol
<?xml version = "1.0" encoding="UTF-8" standalone="yes"?>
<CPLEXSolution version="1.2">
 <header
   problemName="networks/zoo_95_865/zoo_95_865.lp"
   solutionName="incumbent"
   solutionIndex="-1"
   objectiveValue="42"
   solutionTypeValue="3"
   solutionTypeString="primal"
   solutionStatusValue="101"
   solutionStatusString="integer optimal solution"
   solutionMethodString="mip"
   primalFeasible="1"
   dualFeasible="1"
   MIPNodes="0"
   MIPIterations="54455"
   writeLevel="3"/>
 <quality
   epInt="1.0000000000000001e-05"
   epRHS="9.9999999999999995e-07"
   maxIntInfeas="0"
   maxPrimalInfeas="1.7763568394002505e-15"
   maxX="4"
   maxSlack="10"/>
 <variables>
  <variable name="Y(12,16)" index="939" value="1"/>
  <variable name="Y(86,12)" index="7151" value="1"/>
  <variable name="Y(97,5)" index="8068" value="1"/>
  <variable name="Y(181,37)" index="15155" value="1"/>
  <variable name="Y(187,46)" index="15668" value="1"/>
  <variable name="Y(227,7)" index="18990" value="1"/>
  <variable name="Y(232,15)" index="19418" value="1"/>
  <variable name="Y(279,14)" index="23365" value="1"/>
  <variable name="Y(280,17)" index="23452" value="1"/>
  <variable name="Y(295,6)" index="24701" value="1"/>
  <variable name="Y(307,20)" index="25723" value="1"/>
  <variable name="Y(325,3)" index="27218" value="1"/>
  <variable name="Y(380,13)" index="31848" value="1"/>
  <variable name="Y(385,19)" index="32274" value="1"/>
  <variable name="Y(386,21)" index="32360" value="1"/>
  <variable name="Y(398,5)" index="33352" value="1"/>
  <variable name="Y(400,10)" index="33525" value="1"/>
  <variable name="Y(423,26)" index="35473" value="1"/>
  <variable name="Y(426,35)" index="35733" value="1"/>
  <variable name="Y(434,47)" index="36417" value="1"/>
  <variable name="Y(439,23)" index="36814" value="1"/>
  <variable name="Y(449,9)" index="37640" value="1"/>
  <variable name="Y(457,18)" index="38321" value="1"/>
  <variable name="Y(476,10)" index="39909" value="1"/>
  <variable name="Y(477,5)" index="39988" value="1"/>
  <variable name="Y(485,22)" index="40677" value="1"/>
  <variable name="Y(490,41)" index="41115" value="1"/>
  <variable name="Y(513,33)" index="43039" value="1"/>
  <variable name="Y(519,43)" index="43553" value="1"/>
  <variable name="Y(535,25)" index="44880" value="1"/>
  <variable name="Y(540,42)" index="45316" value="1"/>
  <variable name="Y(614,34)" index="51524" value="1"/>
  <variable name="Y(619,45)" index="51955" value="1"/>
  <variable name="Y(623,4)" index="52251" value="1"/>
  <variable name="Y(638,11)" index="53518" value="1"/>
  <variable name="Y(656,1)" index="55020" value="1"/>
  <variable name="Y(677,24)" index="56807" value="1"/>
  <variable name="Y(680,27)" index="57062" value="1"/>
  <variable name="Y(681,28)" index="57147" value="1"/>
  <variable name="Y(685,38)" index="57492" value="1"/>
  <variable name="Y(696,8)" index="58387" value="1"/>
  <variable name="Y(823,40)" index="69086" value="1"/>
  <variable name="X(1,3,434)" index="73093" value="1"/>
  <variable name="X(1,4,227)" index="73751" value="1"/>
  <variable name="X(1,6,86)" index="74475" value="1"/>
  <variable name="X(1,8,696)" index="75950" value="1"/>
  <variable name="X(1,49,656)" index="76775" value="1"/>
  <variable name="X(2,4,623)" index="77607" value="1"/>
  <variable name="X(2,7,227)" index="78076" value="1"/>
  <variable name="X(3,1,696)" index="79410" value="1"/>
  <variable name="X(3,38,434)" index="80013" value="1"/>
  <variable name="X(3,39,476)" index="80920" value="1"/>
  <variable name="X(3,51,325)" index="81634" value="1"/>
  <variable name="X(4,1,86)" index="82260" value="1"/>
  <variable name="X(4,2,227)" index="83266" value="1"/>
  <variable name="X(4,52,623)" index="84527" value="1"/>
  <variable name="X(5,6,477)" index="85246" value="1"/>
  <variable name="X(5,8,490)" index="86124" value="1"/>
  <variable name="X(5,26,97)" index="86596" value="1"/>
  <variable name="X(5,53,398)" index="87762" value="1"/>
  <variable name="X(6,1,227)" index="88456" value="1"/>
  <variable name="X(6,5,398)" index="89492" value="1"/>
  <variable name="X(6,12,86)" index="90045" value="1"/>
  <variable name="X(6,23,677)" index="91501" value="1"/>
  <variable name="X(6,54,295)" index="91984" value="1"/>
  <variable name="X(7,2,623)" index="93177" value="1"/>
  <variable name="X(7,46,97)" index="93516" value="1"/>
  <variable name="X(7,55,227)" index="94511" value="1"/>
  <variable name="X(8,1,656)" index="95805" value="1"/>
  <variable name="X(8,5,97)" index="96111" value="1"/>
  <variable name="X(8,46,490)" index="97369" value="1"/>
  <variable name="X(8,56,696)" index="98440" value="1"/>
  <variable name="X(9,10,400)" index="99009" value="1"/>
  <variable name="X(9,11,638)" index="100112" value="1"/>
  <variable name="X(9,25,325)" index="100664" value="1"/>
  <variable name="X(9,57,449)" index="101653" value="1"/>
  <variable name="X(10,9,638)" index="102707" value="1"/>
  <variable name="X(10,33,400)" index="103334" value="1"/>
  <variable name="X(10,39,685)" index="104484" value="1"/>
  <variable name="X(10,58,476)" index="105140" value="1"/>
  <variable name="X(11,9,400)" index="105929" value="1"/>
  <variable name="X(11,12,295)" index="106689" value="1"/>
  <variable name="X(11,19,385)" index="107644" value="1"/>
  <variable name="X(11,20,638)" index="108762" value="1"/>
  <variable name="X(12,6,295)" index="109284" value="1"/>
  <variable name="X(12,11,400)" index="110254" value="1"/>
  <variable name="X(12,22,386)" index="111105" value="1"/>
  <variable name="X(12,60,86)" index="111670" value="1"/>
  <variable name="X(13,14,232)" index="112681" value="1"/>
  <variable name="X(13,28,681)" index="113995" value="1"/>
  <variable name="X(13,61,380)" index="114559" value="1"/>
  <variable name="X(14,13,380)" index="115424" value="1"/>
  <variable name="X(14,15,232)" index="116141" value="1"/>
  <variable name="X(14,17,280)" index="117054" value="1"/>
  <variable name="X(14,62,279)" index="117918" value="1"/>
  <variable name="X(15,14,279)" index="118783" value="1"/>
  <variable name="X(15,63,232)" index="119601" value="1"/>
  <variable name="X(16,64,12)" index="120246" value="1"/>
  <variable name="X(17,14,380)" index="121479" value="1"/>
  <variable name="X(17,16,12)" index="121976" value="1"/>
  <variable name="X(17,18,307)" index="123136" value="1"/>
  <variable name="X(17,65,280)" index="123974" value="1"/>
  <variable name="X(18,17,380)" index="124939" value="1"/>
  <variable name="X(18,19,295)" index="125719" value="1"/>
  <variable name="X(18,20,307)" index="126596" value="1"/>
  <variable name="X(18,66,457)" index="127611" value="1"/>
  <variable name="X(19,11,295)" index="128314" value="1"/>
  <variable name="X(19,18,457)" index="129341" value="1"/>
  <variable name="X(19,67,385)" index="130134" value="1"/>
  <variable name="X(20,11,385)" index="130999" value="1"/>
  <variable name="X(20,18,380)" index="131859" value="1"/>
  <variable name="X(20,68,307)" index="132651" value="1"/>
  <variable name="X(21,22,485)" index="133694" value="1"/>
  <variable name="X(21,23,398)" index="134472" value="1"/>
  <variable name="X(21,69,386)" index="135325" value="1"/>
  <variable name="X(22,12,400)" index="136204" value="1"/>
  <variable name="X(22,21,386)" index="137055" value="1"/>
  <variable name="X(22,70,485)" index="138019" value="1"/>
  <variable name="X(23,6,398)" index="138797" value="1"/>
  <variable name="X(23,21,485)" index="139749" value="1"/>
  <variable name="X(23,24,677)" index="140806" value="1"/>
  <variable name="X(23,26,423)" index="141417" value="1"/>
  <variable name="X(23,71,439)" index="142298" value="1"/>
  <variable name="X(24,23,439)" index="143163" value="1"/>
  <variable name="X(24,72,677)" index="144266" value="1"/>
  <variable name="X(25,9,449)" index="144903" value="1"/>
  <variable name="X(25,39,325)" index="145644" value="1"/>
  <variable name="X(25,73,535)" index="146719" value="1"/>
  <variable name="X(26,5,477)" index="147526" value="1"/>
  <variable name="X(26,23,485)" index="148399" value="1"/>
  <variable name="X(26,74,423)" index="149202" value="1"/>
  <variable name="X(27,34,513)" index="150157" value="1"/>
  <variable name="X(27,37,519)" index="151028" value="1"/>
  <variable name="X(27,75,680)" index="152054" value="1"/>
  <variable name="X(28,76,681)" index="152920" value="1"/>
  <variable name="X(30,43,540)" index="153644" value="1"/>
  <variable name="X(31,32,513)" index="154482" value="1"/>
  <variable name="X(31,34,181)" index="155015" value="1"/>
  <variable name="X(32,31,181)" index="155880" value="1"/>
  <variable name="X(32,33,513)" index="157077" value="1"/>
  <variable name="X(33,10,638)" index="158067" value="1"/>
  <variable name="X(33,32,181)" index="158475" value="1"/>
  <variable name="X(33,81,513)" index="159672" value="1"/>
  <variable name="X(34,31,513)" index="160537" value="1"/>
  <variable name="X(34,37,181)" index="161070" value="1"/>
  <variable name="X(34,82,614)" index="162368" value="1"/>
  <variable name="X(35,36,614)" index="163233" value="1"/>
  <variable name="X(35,83,426)" index="163910" value="1"/>
  <variable name="X(36,35,426)" index="164775" value="1"/>
  <variable name="X(36,37,614)" index="165828" value="1"/>
  <variable name="X(37,27,680)" index="166759" value="1"/>
  <variable name="X(37,34,614)" index="167558" value="1"/>
  <variable name="X(37,36,426)" index="168235" value="1"/>
  <variable name="X(37,44,519)" index="169193" value="1"/>
  <variable name="X(37,85,181)" index="169720" value="1"/>
  <variable name="X(38,3,696)" index="171100" value="1"/>
  <variable name="X(38,39,535)" index="171804" value="1"/>
  <variable name="X(38,47,434)" index="172568" value="1"/>
  <variable name="X(38,86,685)" index="173684" value="1"/>
  <variable name="X(39,3,325)" index="174189" value="1"/>
  <variable name="X(39,10,476)" index="175205" value="1"/>
  <variable name="X(39,25,535)" index="176129" value="1"/>
  <variable name="X(39,38,685)" index="177144" value="1"/>
  <variable name="X(40,88,823)" index="178147" value="1"/>
  <variable name="X(41,42,823)" index="179012" value="1"/>
  <variable name="X(41,45,619)" index="179673" value="1"/>
  <variable name="X(41,89,490)" index="180409" value="1"/>
  <variable name="X(42,41,619)" index="181403" value="1"/>
  <variable name="X(42,43,519)" index="182168" value="1"/>
  <variable name="X(42,44,823)" index="183337" value="1"/>
  <variable name="X(42,90,540)" index="183919" value="1"/>
  <variable name="X(43,42,540)" index="184784" value="1"/>
  <variable name="X(43,91,519)" index="185628" value="1"/>
  <variable name="X(44,37,426)" index="186400" value="1"/>
  <variable name="X(44,40,823)" index="187662" value="1"/>
  <variable name="X(44,42,519)" index="188223" value="1"/>
  <variable name="X(45,41,490)" index="189059" value="1"/>
  <variable name="X(45,46,623)" index="190057" value="1"/>
  <variable name="X(45,93,619)" index="190918" value="1"/>
  <variable name="X(46,7,623)" index="191787" value="1"/>
  <variable name="X(46,8,97)" index="192126" value="1"/>
  <variable name="X(46,45,490)" index="193384" value="1"/>
  <variable name="X(46,47,535)" index="194294" value="1"/>
  <variable name="X(46,94,187)" index="194811" value="1"/>
  <variable name="X(47,38,535)" index="196024" value="1"/>
  <variable name="X(47,46,187)" index="196541" value="1"/>
  <variable name="X(47,95,434)" index="197653" value="1"/>
  <variable name="C(12,16)" index="198143" value="1"/>
  <variable name="C(86,1)" index="198537" value="1"/>
  <variable name="C(86,6)" index="198538" value="2"/>
  <variable name="C(86,12)" index="198539" value="3"/>
  <variable name="C(97,46)" index="198631" value="1"/>
  <variable name="C(97,8)" index="198632" value="2"/>
  <variable name="C(97,5)" index="198633" value="3"/>
  <variable name="C(181,32)" index="199094" value="1.0000000000000004"/>
  <variable name="C(181,31)" index="199095" value="2.0000000000000004"/>
  <variable name="C(181,34)" index="199096" value="3.0000000000000004"/>
  <variable name="C(181,37)" index="199097" value="4"/>
  <variable name="C(187,46)" index="199140" value="1"/>
  <variable name="C(227,1)" index="199357" value="1"/>
  <variable name="C(227,4)" index="199358" value="2"/>
  <variable name="C(227,2)" index="199359" value="3"/>
  <variable name="C(227,7)" index="199360" value="4"/>
  <variable name="C(232,14)" index="199389" value="1"/>
  <variable name="C(232,15)" index="199390" value="2"/>
  <variable name="C(279,14)" index="199779" value="1"/>
  <variable name="C(280,17)" index="199782" value="1"/>
  <variable name="C(295,19)" index="199916" value="1"/>
  <variable name="C(295,11)" index="199917" value="2"/>
  <variable name="C(295,12)" index="199918" value="3"/>
  <variable name="C(295,6)" index="199919" value="4"/>
  <variable name="C(307,18)" index="199970" value="1"/>
  <variable name="C(307,20)" index="199971" value="2"/>
  <variable name="C(325,25)" index="200136" value="1"/>
  <variable name="C(325,39)" index="200137" value="2"/>
  <variable name="C(325,3)" index="200138" value="3"/>
  <variable name="C(380,18)" index="200473" value="0.99999999999999956"/>
  <variable name="C(380,17)" index="200474" value="1.9999999999999996"/>
  <variable name="C(380,14)" index="200475" value="2.9999999999999996"/>
  <variable name="C(380,13)" index="200476" value="4"/>
  <variable name="C(385,20)" index="200493" value="2.0000000000000009"/>
  <variable name="C(385,11)" index="200494" value="3.0000000000000009"/>
  <variable name="C(385,19)" index="200495" value="4"/>
  <variable name="C(386,22)" index="200499" value="0.99999999999999978"/>
  <variable name="C(386,21)" index="200500" value="1.9999999999999998"/>
  <variable name="C(398,23)" index="200579" value="1"/>
  <variable name="C(398,6)" index="200580" value="2"/>
  <variable name="C(398,5)" index="200581" value="3"/>
  <variable name="C(400,12)" index="200589" value="1.0000000000000018"/>
  <variable name="C(400,11)" index="200590" value="2"/>
  <variable name="C(400,9)" index="200591" value="3"/>
  <variable name="C(400,10)" index="200592" value="4"/>
  <variable name="C(423,26)" index="200712" value="1"/>
  <variable name="C(426,37)" index="200739" value="1"/>
  <variable name="C(426,36)" index="200740" value="2"/>
  <variable name="C(426,35)" index="200741" value="3"/>
  <variable name="C(434,3)" index="200800" value="1"/>
  <variable name="C(434,38)" index="200801" value="2"/>
  <variable name="C(434,47)" index="200802" value="3"/>
  <variable name="C(439,23)" index="200830" value="1"/>
  <variable name="C(449,9)" index="200893" value="1"/>
  <variable name="C(457,18)" index="200941" value="1"/>
  <variable name="C(476,39)" index="201055" value="1"/>
  <variable name="C(476,10)" index="201056" value="2"/>
  <variable name="C(477,5)" index="201058" value="1"/>
  <variable name="C(485,23)" index="201117" value="1"/>
  <variable name="C(485,21)" index="201118" value="2"/>
  <variable name="C(485,22)" index="201119" value="3"/>
  <variable name="C(490,8)" index="201149" value="1"/>
  <variable name="C(490,46)" index="201150" value="2"/>
  <variable name="C(490,45)" index="201151" value="3"/>
  <variable name="C(490,41)" index="201152" value="4"/>
  <variable name="C(513,34)" index="201361" value="1"/>
  <variable name="C(513,31)" index="201362" value="2"/>
  <variable name="C(513,32)" index="201363" value="3"/>
  <variable name="C(513,33)" index="201364" value="4"/>
  <variable name="C(519,37)" index="201385" value="1"/>
  <variable name="C(519,44)" index="201386" value="2"/>
  <variable name="C(519,42)" index="201387" value="3"/>
  <variable name="C(519,43)" index="201388" value="4"/>
  <variable name="C(535,47)" index="201556" value="1"/>
  <variable name="C(535,38)" index="201557" value="2"/>
  <variable name="C(535,39)" index="201558" value="3"/>
  <variable name="C(535,25)" index="201559" value="4"/>
  <variable name="C(540,43)" index="201589" value="1"/>
  <variable name="C(540,42)" index="201590" value="2"/>
  <variable name="C(614,36)" index="202175" value="1"/>
  <variable name="C(614,37)" index="202176" value="2"/>
  <variable name="C(614,34)" index="202177" value="3"/>
  <variable name="C(619,41)" index="202205" value="1"/>
  <variable name="C(619,45)" index="202206" value="2"/>
  <variable name="C(623,46)" index="202239" value="1"/>
  <variable name="C(623,7)" index="202240" value="2"/>
  <variable name="C(623,2)" index="202241" value="3"/>
  <variable name="C(623,4)" index="202242" value="4"/>
  <variable name="C(638,10)" index="202396" value="1"/>
  <variable name="C(638,9)" index="202397" value="2"/>
  <variable name="C(638,11)" index="202398" value="3"/>
  <variable name="C(656,1)" index="202524" value="1"/>
  <variable name="C(677,23)" index="202724" value="1"/>
  <variable name="C(677,24)" index="202725" value="2"/>
  <variable name="C(680,27)" index="202744" value="1"/>
  <variable name="C(681,28)" index="202758" value="1"/>
  <variable name="C(685,39)" index="202775" value="1"/>
  <variable name="C(685,38)" index="202776" value="2.0000000000000004"/>
  <variable name="C(696,38)" index="202820" value="1"/>
  <variable name="C(696,3)" index="202821" value="2"/>
  <variable name="C(696,1)" index="202822" value="3"/>
  <variable name="C(696,8)" index="202823" value="4"/>
  <variable name="C(823,42)" index="203779" value="1"/>
  <variable name="C(823,44)" index="203780" value="2"/>
  <variable name="C(823,40)" index="203781" value="3"/>
 </variables>
</CPLEXSolution>
